3 5
97 93 98 
0 43 42 62 60 73 79 22 15 11 42 56 99 2
1 51 50 98 93 24 27 27 70 100 36 5 85 1
2 98 88 62 59 37 29 49 70 83 99 58 27 2
3 87 97 46 52 103 98 12 19 29 21 68 43 2
4 80 74 26 25 80 75 91 36 11 18 32 63 3
